NAME: rand_0/map8_480
TYPE: TSP
COMMENT: autogenerated using a wonderful map creator
DIMENSION: 600
EDGE_WEIGHT_TYPE: EUC_2D
NODE_COORD_SECTION
1 24.0 6.0
2 35.0 2.0
3 29.0 2.0
4 27.0 1.0
5 36.0 2.0
6 44.0 94.0
7 40.0 2.0
8 33.0 6.0
9 41.0 97.0
10 25.0 4.0
11 37.0 4.0
12 13.0 96.0
13 43.0 99.0
14 6.0 5.0
15 14.0 96.0
16 2.0 3.0
17 32.0 1.0
18 39.0 4.0
19 3.0 98.0
20 16.0 2.0
21 29.0 5.0
22 13.0 4.0
23 42.0 96.0
24 25.0 2.0
25 25.0 95.0
26 3.0 4.0
27 36.0 6.0
28 12.0 99.0
29 27.0 5.0
30 26.0 97.0
31 14.0 6.0
32 38.0 1.0
33 29.0 1.0
34 6.0 95.0
35 11.0 97.0
36 20.0 98.0
37 30.0 95.0
38 36.0 4.0
39 40.0 5.0
40 15.0 6.0
41 17.0 99.0
42 35.0 95.0
43 17.0 6.0
44 38.0 94.0
45 3.0 94.0
46 27.0 6.0
47 14.0 94.0
48 30.0 94.0
49 11.0 94.0
50 19.0 3.0
51 1.0 2.0
52 34.0 3.0
53 30.0 3.0
54 32.0 99.0
55 37.0 2.0
56 29.0 4.0
57 23.0 6.0
58 3.0 97.0
59 7.0 5.0
60 9.0 6.0
61 8.0 5.0
62 31.0 98.0
63 23.0 99.0
64 12.0 2.0
65 36.0 97.0
66 1.0 5.0
67 27.0 3.0
68 8.0 97.0
69 21.0 94.0
70 42.0 5.0
71 38.0 98.0
72 33.0 96.0
73 44.0 95.0
74 22.0 95.0
75 10.0 95.0
76 2.0 1.0
77 19.0 96.0
78 6.0 2.0
79 20.0 2.0
80 16.0 5.0
81 29.0 3.0
82 37.0 96.0
83 39.0 95.0
84 39.0 96.0
85 14.0 3.0
86 24.0 96.0
87 18.0 4.0
88 7.0 3.0
89 40.0 3.0
90 33.0 2.0
91 23.0 94.0
92 7.0 98.0
93 14.0 98.0
94 35.0 1.0
95 30.0 97.0
96 17.0 94.0
97 29.0 96.0
98 24.0 4.0
99 11.0 1.0
100 5.0 4.0
101 10.0 2.0
102 17.0 4.0
103 32.0 98.0
104 5.0 99.0
105 23.0 2.0
106 15.0 95.0
107 39.0 6.0
108 35.0 97.0
109 18.0 96.0
110 11.0 6.0
111 21.0 96.0
112 5.0 98.0
113 18.0 99.0
114 38.0 99.0
115 28.0 97.0
116 43.0 96.0
117 11.0 2.0
118 18.0 3.0
119 27.0 95.0
120 16.0 95.0
121 35.0 4.0
122 33.0 98.0
123 27.0 99.0
124 17.0 96.0
125 41.0 5.0
126 30.0 1.0
127 24.0 3.0
128 9.0 97.0
129 14.0 2.0
130 5.0 3.0
131 9.0 94.0
132 34.0 5.0
133 20.0 3.0
134 31.0 96.0
135 19.0 1.0
136 26.0 2.0
137 2.0 95.0
138 26.0 1.0
139 31.0 99.0
140 5.0 94.0
141 4.0 2.0
142 12.0 96.0
143 4.0 99.0
144 37.0 99.0
145 39.0 5.0
146 33.0 5.0
147 21.0 98.0
148 13.0 99.0
149 11.0 5.0
150 12.0 6.0
151 1.0 95.0
152 20.0 97.0
153 14.0 4.0
154 28.0 1.0
155 16.0 96.0
156 1.0 96.0
157 12.0 98.0
158 7.0 4.0
159 27.0 98.0
160 4.0 96.0
161 13.0 95.0
162 22.0 1.0
163 33.0 97.0
164 39.0 94.0
165 2.0 5.0
166 15.0 98.0
167 22.0 3.0
168 6.0 6.0
169 5.0 2.0
170 8.0 96.0
171 41.0 95.0
172 1.0 4.0
173 8.0 4.0
174 13.0 3.0
175 24.0 5.0
176 32.0 94.0
177 9.0 2.0
178 3.0 95.0
179 15.0 96.0
180 24.0 99.0
181 44.0 97.0
182 34.0 4.0
183 18.0 2.0
184 16.0 1.0
185 25.0 3.0
186 12.0 3.0
187 26.0 6.0
188 41.0 94.0
189 26.0 98.0
190 27.0 97.0
191 7.0 96.0
192 12.0 1.0
193 25.0 97.0
194 44.0 1.0
195 2.0 94.0
196 8.0 99.0
197 24.0 95.0
198 12.0 4.0
199 16.0 98.0
200 20.0 6.0
201 43.0 3.0
202 29.0 94.0
203 9.0 99.0
204 18.0 5.0
205 21.0 1.0
206 36.0 94.0
207 9.0 98.0
208 24.0 94.0
209 26.0 96.0
210 43.0 97.0
211 6.0 94.0
212 11.0 96.0
213 14.0 97.0
214 42.0 3.0
215 28.0 95.0
216 10.0 4.0
217 17.0 2.0
218 11.0 3.0
219 41.0 99.0
220 13.0 97.0
221 33.0 4.0
222 10.0 1.0
223 37.0 3.0
224 8.0 94.0
225 6.0 1.0
226 2.0 6.0
227 23.0 5.0
228 20.0 94.0
229 41.0 1.0
230 13.0 5.0
231 40.0 97.0
232 4.0 1.0
233 22.0 98.0
234 7.0 95.0
235 27.0 94.0
236 38.0 4.0
237 14.0 1.0
238 26.0 99.0
239 4.0 3.0
240 34.0 98.0
241 7.0 17.0
242 7.0 35.0
243 40.0 41.0
244 19.0 18.0
245 28.0 85.0
246 29.0 50.0
247 40.0 59.0
248 25.0 25.0
249 25.0 43.0
250 37.0 8.0
251 10.0 54.0
252 22.0 19.0
253 31.0 86.0
254 37.0 17.0
255 22.0 46.0
256 1.0 72.0
257 24.0 83.0
258 35.0 83.0
259 16.0 79.0
260 13.0 92.0
261 7.0 21.0
262 7.0 30.0
263 40.0 27.0
264 28.0 89.0
265 6.0 61.0
266 40.0 63.0
267 25.0 20.0
268 10.0 31.0
269 25.0 29.0
270 10.0 40.0
271 31.0 72.0
272 25.0 38.0
273 22.0 14.0
274 37.0 12.0
275 37.0 21.0
276 22.0 32.0
277 14.0 28.0
278 3.0 28.0
279 13.0 60.0
280 16.0 56.0
281 16.0 65.0
282 1.0 76.0
283 43.0 91.0
284 28.0 48.0
285 36.0 61.0
286 40.0 22.0
287 25.0 33.0
288 22.0 9.0
289 25.0 42.0
290 43.0 41.0
291 4.0 77.0
292 13.0 55.0
293 43.0 68.0
294 4.0 86.0
295 1.0 62.0
296 16.0 60.0
297 13.0 73.0
298 16.0 87.0
299 29.0 17.0
300 28.0 61.0
301 40.0 35.0
302 10.0 12.0
303 10.0 21.0
304 19.0 88.0
305 25.0 19.0
306 25.0 28.0
307 31.0 62.0
308 22.0 13.0
309 31.0 80.0
310 1.0 48.0
311 13.0 50.0
312 35.0 50.0
313 16.0 46.0
314 43.0 72.0
315 16.0 55.0
316 32.0 72.0
317 16.0 73.0
318 28.0 38.0
319 1.0 84.0
320 28.0 47.0
321 40.0 21.0
322 6.0 28.0
323 9.0 61.0
324 7.0 91.0
325 20.0 39.0
326 30.0 83.0
327 8.0 83.0
328 39.0 61.0
329 43.0 31.0
330 4.0 58.0
331 1.0 34.0
332 13.0 36.0
333 16.0 32.0
334 43.0 58.0
335 4.0 85.0
336 1.0 61.0
337 28.0 24.0
338 26.0 72.0
339 40.0 16.0
340 38.0 83.0
341 7.0 77.0
342 7.0 86.0
343 19.0 60.0
344 31.0 52.0
345 43.0 17.0
346 11.0 83.0
347 13.0 13.0
348 13.0 22.0
349 13.0 31.0
350 43.0 44.0
351 13.0 40.0
352 13.0 49.0
353 16.0 45.0
354 16.0 54.0
355 28.0 19.0
356 17.0 28.0
357 28.0 28.0
358 28.0 37.0
359 40.0 11.0
360 7.0 63.0
361 27.0 50.0
362 19.0 82.0
363 4.0 39.0
364 13.0 17.0
365 24.0 17.0
366 43.0 30.0
367 13.0 26.0
368 1.0 24.0
369 10.0 91.0
370 34.0 58.0
371 4.0 57.0
372 1.0 33.0
373 43.0 39.0
374 16.0 31.0
375 16.0 49.0
376 34.0 85.0
377 22.0 83.0
378 22.0 92.0
379 28.0 23.0
380 7.0 58.0
381 7.0 67.0
382 19.0 50.0
383 30.0 50.0
384 31.0 15.0
385 27.0 72.0
386 19.0 68.0
387 4.0 25.0
388 31.0 51.0
389 41.0 83.0
390 13.0 12.0
391 1.0 10.0
392 25.0 75.0
393 43.0 34.0
394 1.0 28.0
395 16.0 26.0
396 1.0 37.0
397 37.0 58.0
398 28.0 9.0
399 34.0 89.0
400 28.0 18.0
401 43.0 83.0
402 7.0 62.0
403 19.0 27.0
404 19.0 36.0
405 7.0 80.0
406 11.0 50.0
407 4.0 11.0
408 4.0 20.0
409 4.0 29.0
410 4.0 38.0
411 4.0 47.0
412 37.0 44.0
413 10.0 90.0
414 16.0 21.0
415 1.0 32.0
416 34.0 66.0
417 16.0 30.0
418 7.0 39.0
419 15.0 61.0
420 19.0 22.0
421 40.0 81.0
422 31.0 32.0
423 4.0 24.0
424 34.0 34.0
425 1.0 18.0
426 22.0 50.0
427 16.0 16.0
428 25.0 83.0
429 37.0 48.0
430 22.0 59.0
431 34.0 61.0
432 37.0 57.0
433 22.0 68.0
434 37.0 66.0
435 19.0 8.0
436 7.0 61.0
437 42.0 28.0
438 19.0 26.0
439 27.0 39.0
440 40.0 76.0
441 21.0 72.0
442 6.0 83.0
443 41.0 50.0
444 10.0 53.0
445 34.0 20.0
446 10.0 62.0
447 25.0 60.0
448 10.0 71.0
449 34.0 38.0
450 37.0 34.0
451 22.0 45.0
452 34.0 47.0
453 34.0 56.0
454 25.0 87.0
455 7.0 29.0
456 19.0 12.0
457 28.0 79.0
458 19.0 21.0
459 11.0 17.0
460 19.0 30.0
461 40.0 62.0
462 40.0 71.0
463 31.0 13.0
464 40.0 89.0
465 10.0 57.0
466 25.0 55.0
467 37.0 20.0
468 10.0 75.0
469 25.0 73.0
470 34.0 51.0
471 22.0 58.0
472 13.0 86.0
473 16.0 82.0
474 15.0 28.0
475 26.0 28.0
476 5.0 72.0
477 40.0 48.0
478 40.0 66.0
479 40.0 75.0
480 25.0 41.0
481 10.0 61.0
482 22.0 26.0
483 34.0 28.0
484 37.0 24.0
485 34.0 37.0
486 37.0 33.0
487 37.0 42.0
488 24.0 72.0
489 16.0 77.0
490 7.0 19.0
491 18.0 28.0
492 40.0 34.0
493 19.0 11.0
494 40.0 43.0
495 6.0 50.0
496 41.0 17.0
497 9.0 83.0
498 40.0 70.0
499 10.0 47.0
500 34.0 14.0
501 4.0 89.0
502 13.0 67.0
503 13.0 76.0
504 1.0 74.0
505 1.0 83.0
506 28.0 64.0
507 28.0 73.0
508 40.0 38.0
509 40.0 47.0
510 34.0 9.0
511 31.0 74.0
512 43.0 57.0
513 13.0 53.0
514 43.0 66.0
515 4.0 84.0
516 43.0 75.0
517 43.0 84.0
518 28.0 32.0
519 13.0 80.0
520 7.0 9.0
521 1.0 78.0
522 13.0 89.0
523 1.0 87.0
524 16.0 85.0
525 17.0 50.0
526 40.0 15.0
527 28.0 59.0
528 28.0 68.0
529 40.0 33.0
530 40.0 42.0
531 19.0 77.0
532 25.0 17.0
533 10.0 28.0
534 10.0 37.0
535 25.0 35.0
536 31.0 69.0
537 24.0 39.0
538 43.0 52.0
539 12.0 83.0
540 4.0 79.0
541 43.0 70.0
542 16.0 62.0
543 13.0 75.0
544 16.0 71.0
545 28.0 36.0
546 16.0 80.0
547 40.0 19.0
548 29.0 28.0
549 30.0 72.0
550 19.0 72.0
551 39.0 50.0
552 31.0 46.0
553 19.0 90.0
554 31.0 55.0
555 43.0 29.0
556 13.0 34.0
557 1.0 50.0
558 36.0 17.0
559 28.0 13.0
560 35.0 61.0
561 1.0 68.0
562 37.0 89.0
563 28.0 31.0
564 28.0 49.0
565 7.0 84.0
566 6.0 39.0
567 19.0 58.0
568 31.0 41.0
569 11.0 72.0
570 10.0 18.0
571 4.0 42.0
572 43.0 24.0
573 31.0 68.0
574 13.0 29.0
575 4.0 60.0
576 1.0 36.0
577 16.0 34.0
578 28.0 8.0
579 1.0 54.0
580 28.0 17.0
581 1.0 63.0
582 36.0 39.0
583 28.0 44.0
584 7.0 70.0
585 15.0 83.0
586 26.0 83.0
587 7.0 88.0
588 19.0 62.0
589 31.0 36.0
590 43.0 10.0
591 19.0 89.0
592 31.0 54.0
593 43.0 19.0
594 16.0 11.0
595 13.0 24.0
596 1.0 22.0
597 43.0 37.0
598 4.0 55.0
599 16.0 29.0
600 13.0 42.0
601 4.0 73.0
602 16.0 38.0
603 34.0 74.0
604 1.0 49.0
605 16.0 47.0
606 28.0 30.0
607 40.0 13.0
608 7.0 74.0
609 19.0 39.0
610 7.0 92.0
611 31.0 22.0
612 31.0 31.0
613 19.0 75.0
614 4.0 23.0
615 41.0 72.0
616 43.0 14.0
617 31.0 58.0
618 13.0 19.0
619 24.0 28.0
620 4.0 59.0
621 34.0 69.0
622 16.0 33.0
623 3.0 72.0
624 38.0 39.0
625 37.0 83.0
626 7.0 69.0
627 19.0 43.0
628 19.0 52.0
629 20.0 17.0
630 31.0 17.0
631 43.0 9.0
632 4.0 36.0
633 1.0 21.0
634 13.0 23.0
635 4.0 54.0
636 34.0 55.0
637 16.0 19.0
638 1.0 30.0
639 22.0 62.0
640 15.0 50.0
641 7.0 46.0
642 7.0 55.0
643 19.0 38.0
644 19.0 47.0
645 31.0 12.0
646 12.0 17.0
647 31.0 30.0
648 4.0 13.0
649 10.0 65.0
650 4.0 31.0
651 43.0 13.0
652 25.0 63.0
653 4.0 40.0
654 16.0 14.0
655 22.0 48.0
656 34.0 50.0
657 25.0 81.0
658 10.0 92.0
659 34.0 59.0
660 22.0 57.0
661 16.0 23.0
662 25.0 90.0
663 37.0 55.0
664 37.0 64.0
665 37.0 73.0
666 7.0 41.0
667 27.0 28.0
668 7.0 59.0
669 19.0 24.0
670 31.0 16.0
671 40.0 83.0
672 25.0 49.0
673 25.0 58.0
674 34.0 36.0
675 14.0 39.0
676 37.0 41.0
677 10.0 87.0
678 37.0 50.0
679 22.0 61.0
680 37.0 59.0
681 7.0 27.0
682 7.0 36.0
683 36.0 72.0
684 19.0 10.0
685 7.0 54.0
686 40.0 60.0
687 31.0 11.0
688 33.0 39.0
689 21.0 83.0
690 34.0 13.0
691 4.0 21.0
692 37.0 18.0
693 34.0 40.0
694 22.0 38.0
695 10.0 82.0
696 22.0 47.0
697 37.0 54.0
698 22.0 65.0
699 14.0 61.0
700 16.0 89.0
701 28.0 72.0
702 19.0 23.0
703 40.0 55.0
704 40.0 64.0
705 25.0 30.0
706 4.0 16.0
707 34.0 17.0
708 33.0 61.0
709 34.0 26.0
710 10.0 59.0
711 22.0 24.0
712 37.0 22.0
713 10.0 68.0
714 25.0 66.0
715 22.0 42.0
716 43.0 74.0
717 37.0 49.0
718 13.0 79.0
719 7.0 8.0
720 43.0 92.0
START_DEPOT_SECTION
1
2
3
4
5
6
7
8
9
10
11
12
13
14
15
16
17
18
19
20
21
22
23
24
25
26
27
28
29
30
31
32
33
34
35
36
37
38
39
40
41
42
43
44
45
46
47
48
49
50
51
52
53
54
55
56
57
58
59
60
61
62
63
64
65
66
67
68
69
70
71
72
73
74
75
76
77
78
79
80
81
82
83
84
85
86
87
88
89
90
91
92
93
94
95
96
97
98
99
100
101
102
103
104
105
106
107
108
109
110
111
112
113
114
115
116
117
118
119
120
-1
END_DEPOT_SECTION
121
122
123
124
125
126
127
128
129
130
131
132
133
134
135
136
137
138
139
140
141
142
143
144
145
146
147
148
149
150
151
152
153
154
155
156
157
158
159
160
161
162
163
164
165
166
167
168
169
170
171
172
173
174
175
176
177
178
179
180
181
182
183
184
185
186
187
188
189
190
191
192
193
194
195
196
197
198
199
200
201
202
203
204
205
206
207
208
209
210
211
212
213
214
215
216
217
218
219
220
221
222
223
224
225
226
227
228
229
230
231
232
233
234
235
236
237
238
239
240
-1
EOF
